\Problem name: ilog.cplex

Maximize
 obj: lambda
Subject To
 Positiveness_Route_22_(6_5_10_9_4): Route_22_(6_5_10_9_4) >= 0
 Positiveness_Route_23_(6_7_9_4): Route_23_(6_7_9_4) >= 0
 Positiveness_Route_24_(6_8_10_5_10_9_4): Route_24_(6_8_10_5_10_9_4) >= 0
 Positiveness_Route_25_(6_8_10_9_4): Route_25_(6_8_10_9_4) >= 0
 Positiveness_Route_8_(5_10_12_3): Route_8_(5_10_12_3) >= 0
 Positiveness_Route_9_(5_10_9_11_12_3): Route_9_(5_10_9_11_12_3) >= 0
 Positiveness_Route_17_(6_5_10_12_3): Route_17_(6_5_10_12_3) >= 0
 Positiveness_Route_18_(6_7_9_10_12_3): Route_18_(6_7_9_10_12_3) >= 0
 Positiveness_Route_19_(6_7_9_11_12_3): Route_19_(6_7_9_11_12_3) >= 0
 Positiveness_Route_20_(6_8_10_12_3): Route_20_(6_8_10_12_3) >= 0
 Positiveness_Route_21_(6_8_10_5_10_12_3): Route_21_(6_8_10_5_10_12_3) >= 0
 Positiveness_Route_12_(6_7_9_10_12_11_2): Route_12_(6_7_9_10_12_11_2) >= 0
 Positiveness_Route_13_(6_7_9_11_2): Route_13_(6_7_9_11_2) >= 0
 Positiveness_Route_14_(6_8_10_12_11_2): Route_14_(6_8_10_12_11_2) >= 0
 Positiveness_Route_15_(6_8_10_5_10_12_11_2): Route_15_(6_8_10_5_10_12_11_2)
                                 >= 0
 Positiveness_Route_16_(6_8_10_9_11_2): Route_16_(6_8_10_9_11_2) >= 0
 Positiveness_Route_6_(5_10_12_11_2): Route_6_(5_10_12_11_2) >= 0
 Positiveness_Route_7_(5_10_9_11_2): Route_7_(5_10_9_11_2) >= 0
 Positiveness_Route_26_(6_5):    Route_26_(6_5) >= 0
 Positiveness_Route_27_(6_7_9_10_5): Route_27_(6_7_9_10_5) >= 0
 Positiveness_Route_28_(6_8_10_5): Route_28_(6_8_10_5) >= 0
 Positiveness_Route_1_(4_9_10_12_11_2): Route_1_(4_9_10_12_11_2) >= 0
 Positiveness_Route_2_(4_9_11_2): Route_2_(4_9_11_2) >= 0
 Positiveness_Route_10_(5_10_9_4): Route_10_(5_10_9_4) >= 0
 Positiveness_Route_5_(4_9_10_5): Route_5_(4_9_10_5) >= 0
 Positiveness_Route_11_(6_7_1):  Route_11_(6_7_1) >= 0
 Positiveness_Route_3_(4_9_10_12_3): Route_3_(4_9_10_12_3) >= 0
 Positiveness_Route_4_(4_9_11_12_3): Route_4_(4_9_11_12_3) >= 0
 Lower_bound:                    356.450272185108 Route_22_(6_5_10_9_4)
                                 + 35.6450272185108 Route_23_(6_7_9_4)
                                 + 356.450272185108 Route_24_(6_8_10_5_10_9_4)
                                 + 356.450272185108 Route_25_(6_8_10_9_4)
                                 + 44.5570204140522 Route_8_(5_10_12_3)
                                 + 445.570204140522 Route_9_(5_10_9_11_12_3)
                                 + 623.800340236534 Route_17_(6_5_10_12_3)
                                 + 623.800340236534 Route_18_(6_7_9_10_12_3)
                                 + 623.800340236534 Route_19_(6_7_9_11_12_3)
                                 + 62.3800340236534 Route_20_(6_8_10_12_3)
                                 + 623.800340236534 Route_21_(6_8_10_5_10_12_3)
                                 + 623.80060739866 Route_12_(6_7_9_10_12_11_2)
                                 + 62.380060739866 Route_13_(6_7_9_11_2)
                                 + 623.80060739866 Route_14_(6_8_10_12_11_2)
                                 + 623.80060739866 Route_15_(6_8_10_5_10_12_11_2)
                                 + 623.80060739866 Route_16_(6_8_10_9_11_2)
                                 + 53.4680204140695 Route_6_(5_10_12_11_2)
                                 + 534.680204140695 Route_7_(5_10_9_11_2)
                                 + 356.450272184678 Route_26_(6_5)
                                 + 356.450272184678 Route_27_(6_7_9_10_5)
                                 + 35.6450272184678 Route_28_(6_8_10_5)
                                 + 445.570471302273 Route_1_(4_9_10_12_11_2)
                                 + 44.5570471302273 Route_2_(4_9_11_2)
                                 + 26.7330661122904 Route_10_(5_10_9_4)
                                 + 26.733022416871 Route_5_(4_9_10_5)
                                 + 17.8220136088608 Route_11_(6_7_1)
                                 + 53.4680292220566 Route_3_(4_9_10_12_3)
                                 + 534.680292220566 Route_4_(4_9_11_12_3) >= 0
 Upper_bound:                    356.450272185108 Route_22_(6_5_10_9_4)
                                 + 35.6450272185108 Route_23_(6_7_9_4)
                                 + 356.450272185108 Route_24_(6_8_10_5_10_9_4)
                                 + 356.450272185108 Route_25_(6_8_10_9_4)
                                 + 44.5570204140522 Route_8_(5_10_12_3)
                                 + 445.570204140522 Route_9_(5_10_9_11_12_3)
                                 + 623.800340236534 Route_17_(6_5_10_12_3)
                                 + 623.800340236534 Route_18_(6_7_9_10_12_3)
                                 + 623.800340236534 Route_19_(6_7_9_11_12_3)
                                 + 62.3800340236534 Route_20_(6_8_10_12_3)
                                 + 623.800340236534 Route_21_(6_8_10_5_10_12_3)
                                 + 623.80060739866 Route_12_(6_7_9_10_12_11_2)
                                 + 62.380060739866 Route_13_(6_7_9_11_2)
                                 + 623.80060739866 Route_14_(6_8_10_12_11_2)
                                 + 623.80060739866 Route_15_(6_8_10_5_10_12_11_2)
                                 + 623.80060739866 Route_16_(6_8_10_9_11_2)
                                 + 53.4680204140695 Route_6_(5_10_12_11_2)
                                 + 534.680204140695 Route_7_(5_10_9_11_2)
                                 + 356.450272184678 Route_26_(6_5)
                                 + 356.450272184678 Route_27_(6_7_9_10_5)
                                 + 35.6450272184678 Route_28_(6_8_10_5)
                                 + 445.570471302273 Route_1_(4_9_10_12_11_2)
                                 + 44.5570471302273 Route_2_(4_9_11_2)
                                 + 26.7330661122904 Route_10_(5_10_9_4)
                                 + 26.733022416871 Route_5_(4_9_10_5)
                                 + 17.8220136088608 Route_11_(6_7_1)
                                 + 53.4680292220566 Route_3_(4_9_10_12_3)
                                 + 534.680292220566 Route_4_(4_9_11_12_3)
                                 <= 8038084
 Link_count_7_1:                 50 lambda + Route_11_(6_7_1) <= 550
 Link_count_7_1:                 - 50 lambda + Route_11_(6_7_1) >= 450
 Link_count_12_3:                100 lambda + Route_8_(5_10_12_3)
                                 + Route_9_(5_10_9_11_12_3)
                                 + Route_17_(6_5_10_12_3)
                                 + Route_18_(6_7_9_10_12_3)
                                 + Route_19_(6_7_9_11_12_3)
                                 + Route_20_(6_8_10_12_3)
                                 + Route_21_(6_8_10_5_10_12_3)
                                 + Route_3_(4_9_10_12_3)
                                 + Route_4_(4_9_11_12_3) <= 1100
 Link_count_12_3:                - 100 lambda + Route_8_(5_10_12_3)
                                 + Route_9_(5_10_9_11_12_3)
                                 + Route_17_(6_5_10_12_3)
                                 + Route_18_(6_7_9_10_12_3)
                                 + Route_19_(6_7_9_11_12_3)
                                 + Route_20_(6_8_10_12_3)
                                 + Route_21_(6_8_10_5_10_12_3)
                                 + Route_3_(4_9_10_12_3)
                                 + Route_4_(4_9_11_12_3) >= 900
 Link_count_6_7:                 500 lambda + Route_23_(6_7_9_4)
                                 + Route_18_(6_7_9_10_12_3)
                                 + Route_19_(6_7_9_11_12_3)
                                 + Route_12_(6_7_9_10_12_11_2)
                                 + Route_13_(6_7_9_11_2)
                                 + Route_27_(6_7_9_10_5) + Route_11_(6_7_1)
                                 <= 5500
 Link_count_6_7:                 - 500 lambda + Route_23_(6_7_9_4)
                                 + Route_18_(6_7_9_10_12_3)
                                 + Route_19_(6_7_9_11_12_3)
                                 + Route_12_(6_7_9_10_12_11_2)
                                 + Route_13_(6_7_9_11_2)
                                 + Route_27_(6_7_9_10_5) + Route_11_(6_7_1)
                                 >= 4500
 Link_count_7_9:                 450 lambda + Route_23_(6_7_9_4)
                                 + Route_18_(6_7_9_10_12_3)
                                 + Route_19_(6_7_9_11_12_3)
                                 + Route_12_(6_7_9_10_12_11_2)
                                 + Route_13_(6_7_9_11_2)
                                 + Route_27_(6_7_9_10_5) <= 4950
 Link_count_7_9:                 - 450 lambda + Route_23_(6_7_9_4)
                                 + Route_18_(6_7_9_10_12_3)
                                 + Route_19_(6_7_9_11_12_3)
                                 + Route_12_(6_7_9_10_12_11_2)
                                 + Route_13_(6_7_9_11_2)
                                 + Route_27_(6_7_9_10_5) >= 4050
 Link_count_6_5:                 10 lambda + Route_22_(6_5_10_9_4)
                                 + Route_17_(6_5_10_12_3) + Route_26_(6_5)
                                 <= 110
 Link_count_6_5:                 - 10 lambda + Route_22_(6_5_10_9_4)
                                 + Route_17_(6_5_10_12_3) + Route_26_(6_5)
                                 >= 90
 Link_count_4_9:                 240 lambda + Route_1_(4_9_10_12_11_2)
                                 + Route_2_(4_9_11_2) + Route_5_(4_9_10_5)
                                 + Route_3_(4_9_10_12_3)
                                 + Route_4_(4_9_11_12_3) <= 2640
 Link_count_4_9:                 - 240 lambda + Route_1_(4_9_10_12_11_2)
                                 + Route_2_(4_9_11_2) + Route_5_(4_9_10_5)
                                 + Route_3_(4_9_10_12_3)
                                 + Route_4_(4_9_11_12_3) >= 2160
 Link_count_8_10:                50 lambda + Route_24_(6_8_10_5_10_9_4)
                                 + Route_25_(6_8_10_9_4)
                                 + Route_20_(6_8_10_12_3)
                                 + Route_21_(6_8_10_5_10_12_3)
                                 + Route_14_(6_8_10_12_11_2)
                                 + Route_15_(6_8_10_5_10_12_11_2)
                                 + Route_16_(6_8_10_9_11_2)
                                 + Route_28_(6_8_10_5) <= 550
 Link_count_8_10:                - 50 lambda + Route_24_(6_8_10_5_10_9_4)
                                 + Route_25_(6_8_10_9_4)
                                 + Route_20_(6_8_10_12_3)
                                 + Route_21_(6_8_10_5_10_12_3)
                                 + Route_14_(6_8_10_12_11_2)
                                 + Route_15_(6_8_10_5_10_12_11_2)
                                 + Route_16_(6_8_10_9_11_2)
                                 + Route_28_(6_8_10_5) >= 450
 Link_count_9_4:                 200 lambda + Route_22_(6_5_10_9_4)
                                 + Route_23_(6_7_9_4)
                                 + Route_24_(6_8_10_5_10_9_4)
                                 + Route_25_(6_8_10_9_4) + Route_10_(5_10_9_4)
                                 <= 2200
 Link_count_9_4:                 - 200 lambda + Route_22_(6_5_10_9_4)
                                 + Route_23_(6_7_9_4)
                                 + Route_24_(6_8_10_5_10_9_4)
                                 + Route_25_(6_8_10_9_4) + Route_10_(5_10_9_4)
                                 >= 1800
 Link_count_5_10:                200 lambda + Route_22_(6_5_10_9_4)
                                 + Route_24_(6_8_10_5_10_9_4)
                                 + Route_8_(5_10_12_3)
                                 + Route_9_(5_10_9_11_12_3)
                                 + Route_17_(6_5_10_12_3)
                                 + Route_21_(6_8_10_5_10_12_3)
                                 + Route_15_(6_8_10_5_10_12_11_2)
                                 + Route_6_(5_10_12_11_2)
                                 + Route_7_(5_10_9_11_2) + Route_10_(5_10_9_4)
                                 <= 2200
 Link_count_5_10:                - 200 lambda + Route_22_(6_5_10_9_4)
                                 + Route_24_(6_8_10_5_10_9_4)
                                 + Route_8_(5_10_12_3)
                                 + Route_9_(5_10_9_11_12_3)
                                 + Route_17_(6_5_10_12_3)
                                 + Route_21_(6_8_10_5_10_12_3)
                                 + Route_15_(6_8_10_5_10_12_11_2)
                                 + Route_6_(5_10_12_11_2)
                                 + Route_7_(5_10_9_11_2) + Route_10_(5_10_9_4)
                                 >= 1800
 Link_count_10_5:                160 lambda + Route_24_(6_8_10_5_10_9_4)
                                 + Route_21_(6_8_10_5_10_12_3)
                                 + Route_15_(6_8_10_5_10_12_11_2)
                                 + Route_27_(6_7_9_10_5) + Route_28_(6_8_10_5)
                                 + Route_5_(4_9_10_5) <= 1760
 Link_count_10_5:                - 160 lambda + Route_24_(6_8_10_5_10_9_4)
                                 + Route_21_(6_8_10_5_10_12_3)
                                 + Route_15_(6_8_10_5_10_12_11_2)
                                 + Route_27_(6_7_9_10_5) + Route_28_(6_8_10_5)
                                 + Route_5_(4_9_10_5) >= 1440
 Link_count_6_8:                 50 lambda + Route_24_(6_8_10_5_10_9_4)
                                 + Route_25_(6_8_10_9_4)
                                 + Route_20_(6_8_10_12_3)
                                 + Route_21_(6_8_10_5_10_12_3)
                                 + Route_14_(6_8_10_12_11_2)
                                 + Route_15_(6_8_10_5_10_12_11_2)
                                 + Route_16_(6_8_10_9_11_2)
                                 + Route_28_(6_8_10_5) <= 550
 Link_count_6_8:                 - 50 lambda + Route_24_(6_8_10_5_10_9_4)
                                 + Route_25_(6_8_10_9_4)
                                 + Route_20_(6_8_10_12_3)
                                 + Route_21_(6_8_10_5_10_12_3)
                                 + Route_14_(6_8_10_12_11_2)
                                 + Route_15_(6_8_10_5_10_12_11_2)
                                 + Route_16_(6_8_10_9_11_2)
                                 + Route_28_(6_8_10_5) >= 450
 Link_count_11_2:                480 lambda + Route_12_(6_7_9_10_12_11_2)
                                 + Route_13_(6_7_9_11_2)
                                 + Route_14_(6_8_10_12_11_2)
                                 + Route_15_(6_8_10_5_10_12_11_2)
                                 + Route_16_(6_8_10_9_11_2)
                                 + Route_6_(5_10_12_11_2)
                                 + Route_7_(5_10_9_11_2)
                                 + Route_1_(4_9_10_12_11_2)
                                 + Route_2_(4_9_11_2) <= 5280
 Link_count_11_2:                - 480 lambda + Route_12_(6_7_9_10_12_11_2)
                                 + Route_13_(6_7_9_11_2)
                                 + Route_14_(6_8_10_12_11_2)
                                 + Route_15_(6_8_10_5_10_12_11_2)
                                 + Route_16_(6_8_10_9_11_2)
                                 + Route_6_(5_10_12_11_2)
                                 + Route_7_(5_10_9_11_2)
                                 + Route_1_(4_9_10_12_11_2)
                                 + Route_2_(4_9_11_2) >= 4320
Bounds
 0 <= lambda <= 1
 0 <= Route_22_(6_5_10_9_4) <= 2147483647
 0 <= Route_23_(6_7_9_4) <= 2147483647
 0 <= Route_24_(6_8_10_5_10_9_4) <= 2147483647
 0 <= Route_25_(6_8_10_9_4) <= 2147483647
 0 <= Route_8_(5_10_12_3) <= 2147483647
 0 <= Route_9_(5_10_9_11_12_3) <= 2147483647
 0 <= Route_17_(6_5_10_12_3) <= 2147483647
 0 <= Route_18_(6_7_9_10_12_3) <= 2147483647
 0 <= Route_19_(6_7_9_11_12_3) <= 2147483647
 0 <= Route_20_(6_8_10_12_3) <= 2147483647
 0 <= Route_21_(6_8_10_5_10_12_3) <= 2147483647
 0 <= Route_12_(6_7_9_10_12_11_2) <= 2147483647
 0 <= Route_13_(6_7_9_11_2) <= 2147483647
 0 <= Route_14_(6_8_10_12_11_2) <= 2147483647
 0 <= Route_15_(6_8_10_5_10_12_11_2) <= 2147483647
 0 <= Route_16_(6_8_10_9_11_2) <= 2147483647
 0 <= Route_6_(5_10_12_11_2) <= 2147483647
 0 <= Route_7_(5_10_9_11_2) <= 2147483647
 0 <= Route_26_(6_5) <= 2147483647
 0 <= Route_27_(6_7_9_10_5) <= 2147483647
 0 <= Route_28_(6_8_10_5) <= 2147483647
 0 <= Route_1_(4_9_10_12_11_2) <= 2147483647
 0 <= Route_2_(4_9_11_2) <= 2147483647
 0 <= Route_10_(5_10_9_4) <= 2147483647
 0 <= Route_5_(4_9_10_5) <= 2147483647
 0 <= Route_11_(6_7_1) <= 2147483647
 0 <= Route_3_(4_9_10_12_3) <= 2147483647
 0 <= Route_4_(4_9_11_12_3) <= 2147483647
End
